letting n_nurses=25
letting n_days=7
letting n_shift_types=4
letting max_covers=12
letting t_covers=87
letting covers=[1,12,5,0,6,0,10,0,9,0,7,0,1,1,0,0,4,2,12,0,6,2,1,0,5,3,0,0]
letting prefes=[3,1,1,3,2,2,2,2,2,2,2,2,3,1,1,3,2,2,2,2,2,2,2,2,3,1,1,3,2,1,1,2,2,1,2,2,2,2,2,2,2,1,1,2,2,1,2,2,2,2,2,2,2,1,1,2,2,4,4,2,2,1,2,1,2,2,2,2,2,4,4,2,2,1,2,1,2,2,2,2,2,4,4,2,2,4,4,2,2,2,2,2,2,3,2,2,2,4,4,2,2,2,2,2,2,3,2,2,2,4,4,2,1,4,4,1,1,1,1,1,1,1,1,1,1,4,4,1,1,1,1,1,1,1,1,1,1,4,4,1,2,1,1,2,4,1,4,1,2,4,4,2,2,1,1,2,4,1,4,1,2,4,4,2,2,1,1,2,1,4,4,1,2,3,2,3,1,1,2,1,1,4,4,1,2,3,2,3,1,1,2,1,1,4,4,1,2,1,1,2,2,1,2,1,3,2,2,3,2,1,1,2,2,1,2,1,3,2,2,3,2,1,1,2,4,4,4,4,4,2,4,2,1,4,4,1,4,4,4,4,4,2,4,2,1,4,4,1,4,4,4,4,2,1,1,2,2,1,2,1,1,1,2,1,2,1,1,2,2,1,2,1,1,1,2,1,2,1,1,2,2,4,4,2,2,1,2,1,2,1,2,2,2,4,4,2,2,1,2,1,2,1,2,2,2,4,4,2,2,1,1,2,1,1,1,1,3,1,1,3,2,1,1,2,1,1,1,1,3,1,1,3,2,1,1,2,1,4,4,1,1,2,1,2,1,2,1,1,1,4,4,1,1,2,1,2,1,2,1,1,1,4,4,1,1,1,1,1,2,2,2,2,2,2,2,2,1,1,1,1,2,2,2,2,2,2,2,2,1,1,1,1,2,2,2,2,2,3,2,1,1,2,2,1,2,2,2,2,2,3,2,1,1,2,2,1,2,2,2,2,1,4,4,1,1,1,1,1,2,1,1,2,1,4,4,1,1,1,1,1,2,1,1,2,1,4,4,1,1,4,4,1,1,2,1,2,2,2,1,2,1,4,4,1,1,2,1,2,2,2,1,2,1,4,4,1,1,2,2,1,1,4,1,1,1,2,1,1,1,2,2,1,1,4,1,1,1,2,1,1,1,2,2,1,1,4,4,1,2,2,2,1,4,2,2,4,1,4,4,1,2,2,2,1,4,2,2,4,1,4,4,1,1,1,1,1,1,2,1,2,2,2,1,2,1,1,1,1,1,2,1,2,2,2,1,2,1,1,1,1,3,1,1,3,3,1,3,1,1,1,3,1,3,1,1,3,3,1,3,1,1,1,3,1,3,1,1,3,2,1,1,2,1,1,1,1,1,2,1,1,2,1,1,2,1,1,1,1,1,2,1,1,2,1,1,2,2,1,1,2,2,2,2,3,2,1,2,2,2,1,1,2,2,2,2,3,2,1,2,2,2,1,1,2,2,2,2,2,1,2,1,3,1,2,1,1,2,2,2,2,1,2,1,3,1,2,1,1,2,2,2,2,2,4,4,2,1,1,1,1,1,1,1,1,2,4,4,2,1,1,1,1,1,1,1,1,2,4,4,2]
letting ub =  241
